[24144, 28032, 23738, 24500, 24052, 20400, 20722, 20040, 19248, 19030, 17060, 17270, 15920, 15912, 14112, 14922, 12544, 14256, 10752, 14256, 13280, 13244, 13090, 12120, 11220, 9810, 9470, 9020, 6728, 6728, 6728, 6728, 5736, 5736, 5412, 5412, 5160, 5070, 5070, 4920, 4980, 4980, 4866, 4866, 4866, 4758, 4866, 4866, 4716, 4716, 4638, 4638, 4638, 4638, 4638, 4638, 4638, 3520, 3520, 3520, 3520, 3392, 3364, 3360, 3344, 3360, 3360, 3344, 3344, 3344, 3256, 3256, 3256, 3256, 3256, 3256, 3220, 3220, 3200, 3200, 3200, 3200, 3200, 3016, 3016, 3016, 3016, 3016, 3016, 3016, 3004, 3004, 3004, 3004, 2924, 2924, 2924, 2924, 2924, 2924, 2924, 2924, 2920, 2924, 2872, 2872, 2872, 2872, 2872, 2872, 2872, 2872, 2872, 2872, 2872, 2872, 2872, 2872, 2872, 2872, 2872, 2872, 2872, 2872, 2872, 2872, 2872, 1506, 1506, 1506, 1506, 1506, 1506, 1506, 1506, 1506, 1506, 1506, 1506, 1506, 1506, 1506, 1506, 1506, 1506, 1506, 1506, 1506, 1506, 1506, 1506, 1506, 1506, 1506, 1506, 1438, 1438, 1438, 1438, 1438, 1438, 1438, 1438, 1438, 1438, 1436, 1436, 1436, 1436, 1436, 1436, 1436, 1436, 1436, 1436, 1436, 1436, 1436, 1436, 1436, 1436, 1436, 1436, 1436, 1436, 1436, 1436, 1436, 1436, 1436, 1436, 1436, 1436, 1436, 1436, 1436, 1436, 1436, 1436, 1436]